;; Original file: adr_147.smt2
(set-logic HORN)
(declare-fun |f$unknown:2| (Int Int) Bool)
(declare-fun |twice$unknown:4| (Int Int) Bool)
(declare-fun |twice$unknown:6| (Int Int) Bool)


(assert (forall ((|$V-reftype:15| Int) (|$alpha-3:x| Int))
  (=> (and (= |$V-reftype:15| (* 2 |$alpha-3:x|)) true)
      (|f$unknown:2| |$V-reftype:15| |$alpha-3:x|))))
(assert (forall ((|$knormal:4| Int)
         (|$alpha-4:n| Int)
         (|$V-reftype:3| Int)
         (f Int))
  (let ((a!1 (and (= (not (= 0 |$knormal:4|)) (> |$alpha-4:n| 0))
                  (not (= 0 |$knormal:4|))
                  true
                  (|f$unknown:2| |$V-reftype:3| f))))
    (=> a!1 (|twice$unknown:4| |$V-reftype:3| f)))))
(assert (forall ((|$V-reftype:14| Int)
         (|$knormal:3| Int)
         (|$knormal:1| Int)
         (|$alpha-2:x| Int))
  (=> (and (= |$V-reftype:14| |$knormal:3|)
           true
           (|twice$unknown:4| |$knormal:3| |$knormal:1|)
           (|twice$unknown:4| |$knormal:1| |$alpha-2:x|))
      (|twice$unknown:6| |$V-reftype:14| |$alpha-2:x|))))
(assert (forall ((|$knormal:1| Int) (|$alpha-2:x| Int))
  (=> (and true
           (|twice$unknown:4| |$knormal:1| |$alpha-2:x|)
           (not true))
      true)))
(assert (forall ((|$knormal:9| Int)
         (|$knormal:7| Int)
         (|$alpha-4:n| Int)
         (|$knormal:4| Int))
  (let ((a!1 (and (= (not (= 0 |$knormal:9|))
                     (> |$knormal:7| |$alpha-4:n|))
                  (= (not (= 0 |$knormal:4|)) (> |$alpha-4:n| 0))
                  (not (not (= 0 |$knormal:9|)))
                  (not (= 0 |$knormal:4|))
                  (|twice$unknown:6| |$knormal:7| |$alpha-4:n|))))
    (=> a!1 false))))
(check-sat)
